\* row_knapsack_problem *\
Minimize
knapsack: 33 row_14 + 32 row_17 + 33 row_18 + 33 row_25 + 33 row_29 + 33 row_3
 + 33 row_30 + 32 row_34 + 32 row_35 + 32 row_37 + 32 row_39 + 31 row_40
 + 33 row_41 + 32 row_47
Subject To
sensitivity: row_17 + row_34 + row_35 + row_37 + row_39 + 2 row_40 + row_47
 >= 5.6
Bounds
 row_14 <= 1
 row_17 <= 1
 row_18 <= 1
 row_25 <= 1
 row_29 <= 1
 row_3 <= 1
 row_30 <= 1
 row_34 <= 1
 row_35 <= 1
 row_37 <= 1
 row_39 <= 1
 row_40 <= 1
 row_41 <= 1
 row_47 <= 1
End
